%%% static parameters %%%
timespan = 1;
Fact = [4];
Distr1 = [15];
Distr2 = [30];
Clients_N = [300];
Demand_W = [15];
Lt0 = [4];
Lt1 = [4];
SS_ = [0.85];
DS_D = [8];
K = [200];
MA = [500];
%%% dynamic parameters %%%
lost_ratio_sales_ret_th = 0.10683907854929298;
lost_ratio_sales_ret_w = 70;
lost_ratio_sales_dis_th = 0.5515590820529543;
lost_ratio_sales_dis_w = 25;
lost_ratio_sales_fac_th = 0.36363135332190877;
lost_ratio_sales_fac_w = 6;
stock_customer_MA_mean_relative_th = 0.2136629156776968;
stock_customer_MA_mean_relative_w = 11;
stock_distributor_MA_mean_relative_th = 0.3500142054137446;
stock_distributor_MA_mean_relative_w = 52;
stock_retailer_MA_mean_relative_th = 0.8647013801112949;
stock_retailer_MA_mean_relative_w = 32;
stock_factory_MA_mean_relative_th = 0.8438064352314757;
stock_factory_MA_mean_relative_w = 9;
